Instance: E151-12b.dat
Class:  3
  150 --- number of customers (no depot)
   30 --- number of vehicles
  298 --- number of items
Capacity - height - width of vehicles
   200     40     20
Node - x - y - demand
    0    35.0    35.0     0.0
    1    41.0    49.0    10.0
    2    35.0    17.0     7.0
    3    55.0    45.0    13.0
    4    55.0    20.0    19.0
    5    15.0    30.0    26.0
    6    25.0    30.0     3.0
    7    20.0    50.0     5.0
    8    10.0    43.0     9.0
    9    55.0    60.0    16.0
   10    30.0    60.0    16.0
   11    20.0    65.0    12.0
   12    50.0    35.0    19.0
   13    30.0    25.0    23.0
   14    15.0    10.0    20.0
   15    30.0     5.0     8.0
   16    10.0    20.0    19.0
   17     5.0    30.0     2.0
   18    20.0    40.0    12.0
   19    15.0    60.0    17.0
   20    45.0    65.0     9.0
   21    45.0    20.0    11.0
   22    45.0    10.0    18.0
   23    55.0     5.0    29.0
   24    65.0    35.0     3.0
   25    65.0    20.0     6.0
   26    45.0    30.0    17.0
   27    35.0    40.0    16.0
   28    41.0    37.0    16.0
   29    64.0    42.0     9.0
   30    40.0    60.0    21.0
   31    31.0    52.0    27.0
   32    35.0    69.0    23.0
   33    53.0    52.0    11.0
   34    65.0    55.0    14.0
   35    63.0    65.0     8.0
   36     2.0    60.0     5.0
   37    20.0    20.0     8.0
   38     5.0     5.0    16.0
   39    60.0    12.0    31.0
   40    40.0    25.0     9.0
   41    42.0     7.0     5.0
   42    24.0    12.0     5.0
   43    23.0     3.0     7.0
   44    11.0    14.0    18.0
   45     6.0    38.0    16.0
   46     2.0    48.0     1.0
   47     8.0    56.0    27.0
   48    13.0    52.0    36.0
   49     6.0    68.0    30.0
   50    47.0    47.0    13.0
   51    49.0    58.0    10.0
   52    27.0    43.0     9.0
   53    37.0    31.0    14.0
   54    57.0    29.0    18.0
   55    63.0    23.0     2.0
   56    53.0    12.0     6.0
   57    32.0    12.0     7.0
   58    36.0    26.0    18.0
   59    21.0    24.0    28.0
   60    17.0    34.0     3.0
   61    12.0    24.0    13.0
   62    24.0    58.0    19.0
   63    27.0    69.0    10.0
   64    15.0    77.0     9.0
   65    62.0    77.0    20.0
   66    49.0    73.0    25.0
   67    67.0     5.0    25.0
   68    56.0    39.0    36.0
   69    37.0    47.0     6.0
   70    37.0    56.0     5.0
   71    57.0    68.0    15.0
   72    47.0    16.0    25.0
   73    44.0    17.0     9.0
   74    46.0    13.0     8.0
   75    49.0    11.0    18.0
   76    49.0    42.0    13.0
   77    53.0    43.0    14.0
   78    61.0    52.0     3.0
   79    57.0    48.0    23.0
   80    56.0    37.0     6.0
   81    55.0    54.0    26.0
   82    15.0    47.0    16.0
   83    14.0    37.0    11.0
   84    11.0    31.0     7.0
   85    16.0    22.0    41.0
   86     4.0    18.0    35.0
   87    28.0    18.0    26.0
   88    26.0    52.0     9.0
   89    26.0    35.0    15.0
   90    31.0    67.0     3.0
   91    15.0    19.0     1.0
   92    22.0    22.0     2.0
   93    18.0    24.0    22.0
   94    26.0    27.0    27.0
   95    25.0    24.0    20.0
   96    22.0    27.0    11.0
   97    25.0    21.0    12.0
   98    19.0    21.0    10.0
   99    20.0    26.0     9.0
  100    18.0    18.0    17.0
  101    37.0    52.0     7.0
  102    49.0    49.0    30.0
  103    52.0    64.0    16.0
  104    20.0    26.0     9.0
  105    40.0    30.0    21.0
  106    21.0    47.0    15.0
  107    17.0    63.0    19.0
  108    31.0    62.0    23.0
  109    52.0    33.0    11.0
  110    51.0    21.0     5.0
  111    42.0    41.0    19.0
  112    31.0    32.0    29.0
  113     5.0    25.0    23.0
  114    12.0    42.0    21.0
  115    36.0    16.0    10.0
  116    52.0    41.0    15.0
  117    27.0    23.0     3.0
  118    17.0    33.0    41.0
  119    13.0    13.0     9.0
  120    57.0    58.0    28.0
  121    62.0    42.0     8.0
  122    42.0    57.0     8.0
  123    16.0    57.0    16.0
  124     8.0    52.0    10.0
  125     7.0    38.0    28.0
  126    27.0    68.0     7.0
  127    30.0    48.0    15.0
  128    43.0    67.0    14.0
  129    58.0    48.0     6.0
  130    58.0    27.0    19.0
  131    37.0    69.0    11.0
  132    38.0    46.0    12.0
  133    46.0    10.0    23.0
  134    61.0    33.0    26.0
  135    62.0    63.0    17.0
  136    63.0    69.0     6.0
  137    32.0    22.0     9.0
  138    45.0    35.0    15.0
  139    59.0    15.0    14.0
  140     5.0     6.0     7.0
  141    10.0    17.0    27.0
  142    21.0    10.0    13.0
  143     5.0    64.0    11.0
  144    30.0    15.0    16.0
  145    39.0    10.0    10.0
  146    32.0    39.0     5.0
  147    25.0    32.0    25.0
  148    25.0    55.0    17.0
  149    48.0    28.0    18.0
  150    56.0    37.0    10.0
Node - number of items - h - w for each item
    0   0
    1   1   14    5
    2   1   11    5
    3   2    9    8   23    2
    4   2    4   10   12    2
    5   3    6   13   14    7    9    6
    6   1    6   12
    7   2    4   14   13    5
    8   3    5    8   15    7   15    3
    9   1   17    4
   10   2    7   16    7   15
   11   2    6   11   32    3
   12   1   13    4
   13   3    6    8   23    2   22    2
   14   1   19    2
   15   2    6   13   11    4
   16   2   16    7   14    4
   17   1    6   14
   18   2    5    6   29    2
   19   1    7   13
   20   3    6   12   15    6   31    3
   21   1    7   13
   22   2    4    8    5    6
   23   2   14    6   18    3
   24   3   13    8   15    7   29    4
   25   3    6   12   10    6   29    4
   26   2   31    4   23    3
   27   3    8   16    8   15   10    4
   28   1    6   15
   29   3    9    7   11    5   15    4
   30   3    5   12   10    8   22    3
   31   1   28    3
   32   1   14    8
   33   3   25    3   14    3   21    2
   34   2    5    8    5    7
   35   3    4    6    9    5   30    2
   36   2   16    4   15    4
   37   3    8   14   14    4   29    2
   38   2   32    4   30    4
   39   1   12    6
   40   2   16    7    5    6
   41   3    6   13   23    4   22    3
   42   2   30    3   29    2
   43   1    8   10
   44   2   14    5   26    2
   45   1   31    3
   46   1    8   11
   47   3    8    6    8    5   26    4
   48   1    7   11
   49   1   29    4
   50   3    5    9    8    7   10    6
   51   1   20    3
   52   1   10    7
   53   3    7   10   27    4   25    4
   54   3    6   13    8    9   21    3
   55   3   13    5   13    4   16    3
   56   1   27    3
   57   2    5    7   13    4
   58   3    5    9    7    7   25    3
   59   3    6   15   12    4   13    3
   60   1   28    3
   61   2   12    7   20    3
   62   3    8    8   15    6   21    4
   63   3    5   16    6   15   23    4
   64   2    8   16    8    7
   65   3    6   15    8   14    8    4
   66   1    9    7
   67   3    6   13   10    4   13    3
   68   2   12    7   16    3
   69   1    6   10
   70   2    6    6   15    5
   71   2    7   11   32    3
   72   1   24    2
   73   2    5   11   28    2
   74   2   12    6   22    4
   75   3   13    7   27    4   16    4
   76   3   14    7    9    6   23    4
   77   2    9    5   13    4
   78   2    8   13   12    6
   79   3    6   11    7    8   30    4
   80   3    8   14    4    9   10    6
   81   1    7   15
   82   3   14    8    4    8   20    4
   83   1   10    6
   84   2    8   11    5    9
   85   2    6   13   19    2
   86   1   30    3
   87   1   12    6
   88   2    7   13   23    2
   89   3    7   10   21    4   27    2
   90   2    5   10    5    6
   91   2   14    7   12    5
   92   1   12    6
   93   1   14    2
   94   2   11    5   21    4
   95   3    6    9   22    3   15    3
   96   3    7   15    6   14   25    2
   97   3    5    8    8    7    8    6
   98   3    6   15    5    7    5    7
   99   2   11    6   13    4
  100   1   18    4
  101   2    9    5   24    3
  102   2    7    9   31    3
  103   1    5    7
  104   1   12    7
  105   3    7   16    8    6   18    4
  106   1   15    4
  107   1    6   14
  108   2   14    7   24    2
  109   2    6   13    7   12
  110   3   16    7   11    6   17    3
  111   3    6   11    9    7   24    3
  112   3    8   13    8    7   31    3
  113   1   13    3
  114   1    6    9
  115   2    5   11   15    7
  116   1   11    8
  117   2   12    8    9    6
  118   1   29    3
  119   2   15    6   25    2
  120   3   14    5   32    3   28    3
  121   1   21    2
  122   1   16    3
  123   3   13    7   10    7   15    6
  124   3    5    7    4    7   23    3
  125   3    7   13    7   10   30    4
  126   1    9    4
  127   3    5   16   23    3   21    3
  128   1   12    8
  129   2   11    8   23    2
  130   2    5    7   29    2
  131   3    6   13   13    6   31    3
  132   1    5   12
  133   1    6    7
  134   1    6    7
  135   1    4   14
  136   1    4   14
  137   3   10    6   15    4   25    3
  138   1   12    8
  139   3   12    7   25    3   14    3
  140   2    6   14    8    6
  141   2    5   13   11    6
  142   3    8    7   15    5   22    3
  143   3    8   15   19    3   18    2
  144   3    7   15    7   10   13    6
  145   1   15    4
  146   2   10    7   15    3
  147   2    8    9   25    4
  148   1   24    3
  149   2    7    6   14    5
  150   3    9    7   16    6   15    5
